100
1000
199
198
197
197
197
196
196
196
196
195
195
194
194
193
193
193
192
192
191
191
191
190
190
190
189
188
188
187
185
185
184
184
184
183
182
181
181
181
180
179
178
178
178
178
177
177
177
176
176
176
176
175
175
175
174
174
173
172
171
171
171
171
171
171
169
168
168
167
166
165
165
165
164
164
164
163
163
161
161
160
160
157
157
157
157
156
156
156
156
154
153
153
153
152
151
151
150
150
150
150
